coords = array2d(1..65, 1..2, [288, 185, 610, 735, 472, 70, 322, 856, 999, 705,
    423, 619, 592, 55, 38, 52, 860, 445, 565, 8, 302, 218, 36, 658,
    42, 156, 914, 416, 30, 34, 955, 517, 107, 715, 67, 529, 775, 740,
    363, 105, 829, 418, 483, 593, 225, 847, 558, 312, 123, 707, 124,
    909, 952, 470, 850, 558, 604, 999, 804, 644, 68, 252, 627, 865,
    39, 303, 118, 933, 442, 92, 875, 480, 771, 555, 643, 461, 852,
    576, 288, 707, 59, 514, 866, 486, 200, 554, 329, 940, 380, 557,
    302, 1, 579, 417, 339, 641, 121, 524, 561, 676, 21, 819, 811, 174,
    381, 567, 151, 787, 75, 569, 798, 791, 449, 275, 92, 557, 751,
    440, 28, 608, 279, 76, 957, 70, 676, 95, 746, 592, 60, 970]);

n = 65;

